601,446
655,419
667,494
817,673
977,702
921,528
1041,406
1028,229
899,248
814,338
727,264
755,178
947,213
899,248
655,419
681,436
738,388
755,178
830,112
956,131
838,-79
847,-107
620,21
448,173
628,379
601,446
575,460
667,494
625,761
552,805
625,761
817,673
893,618
804,575
681,616
639,672
977,702
1184,327
1041,406
738,388
681,436
804,575
921,528
792,64
847,-107
364,-30
361,243
267,341
366,177
361,243
765,322
727,264
448,173
317,142
436,-75
542,-21
628,379
620,21
